
Gurobi 6.5.2 (win64) logging started 07/24/16 17:56:30


Gurobi 6.5.2 (win64) logging started 07/24/16 17:56:30

Optimize a model with 3997 rows, 798 columns and 9942 nonzeros
Coefficient statistics:
  Matrix range    [6e-08, 1e+03]
  Objective range [1e+00, 1e+00]
  Bounds range    [1e+00, 1e+00]
  RHS range       [6e-06, 2e+03]
Presolve removed 3740 rows and 532 columns
Presolve time: 0.00s
Presolved: 257 rows, 266 columns, 1091 nonzeros
Variable types: 266 continuous, 0 integer (0 binary)

Root relaxation: objective 2.006096e+01, 273 iterations, 0.00 seconds

    Nodes    |    Current Node    |     Objective Bounds      |     Work
 Expl Unexpl |  Obj  Depth IntInf | Incumbent    BestBd   Gap | It/Node Time

*    0     0               0      20.0609555   20.06096  0.00%     -    0s

Explored 0 nodes (273 simplex iterations) in 0.02 seconds
Thread count was 8 (of 8 available processors)

Optimal solution found (tolerance 1.00e-04)
Best objective 2.006095552129e+01, best bound 2.006095552129e+01, gap 0.0%

Wrote requested result file 'H1\instance30\\Results30EC_Sol3.lp'

